Version identifier: 20.1.0.0 | 2020-11-10 | 9bedb6d68
Tried aggregator 2 times.
MIP Presolve eliminated 1007 rows and 573 columns.
MIP Presolve modified 2406 coefficients.
Aggregator did 117 substitutions.
Reduced MIP has 1390 rows, 1080 columns, and 4591 nonzeros.
Reduced MIP has 222 binaries, 858 generals, 0 SOSs, and 0 indicators.
Presolve time = 0.02 sec. (5.58 ticks)
Found incumbent of value 2707.000000 after 0.03 sec. (11.41 ticks)
Probing fixed 30 vars, tightened 237 bounds.
Probing time = 0.00 sec. (0.96 ticks)
Tried aggregator 1 time.
Detecting symmetries...
MIP Presolve eliminated 615 rows and 30 columns.
MIP Presolve modified 85 coefficients.
Reduced MIP has 775 rows, 1050 columns, and 2596 nonzeros.
Reduced MIP has 274 binaries, 776 generals, 0 SOSs, and 0 indicators.
Presolve time = 0.01 sec. (2.80 ticks)
Probing time = 0.00 sec. (0.27 ticks)
Clique table members: 95.
MIP emphasis: balance optimality and feasibility.
MIP search method: dynamic search.
Parallel mode: deterministic, using up to 24 threads.
Root relaxation solution time = 0.01 sec. (2.33 ticks)

        Nodes                                         Cuts/
   Node  Left     Objective  IInf  Best Integer    Best Bound    ItCnt     Gap

*     0+    0                         2707.0000        0.0000           100.00%
      0     0        0.0000    40     2707.0000        0.0000      271  100.00%
      0     0        0.0000    46     2707.0000      Cuts: 49      310  100.00%
      0     0        0.8182    89     2707.0000      Cuts: 84      419   99.97%
*     0+    0                           50.0000        0.8182            98.36%
      0     0        0.9004   120       50.0000      Cuts: 44      544   98.20%
      0     0        1.1429    94       50.0000      Cuts: 66      599   97.71%
      0     0        1.1429   132       50.0000      Cuts: 30      625   97.71%
*     0+    0                           30.0000        1.1429            96.19%
*     0+    0                           15.0000        1.1429            92.38%
      0     2        1.1429    80       15.0000       13.0000      625   13.33%
Elapsed time = 0.72 sec. (94.27 ticks, tree = 0.02 MB, solutions = 4)
*    49+    5                           14.0000       13.0000             7.14%
*    66+    1                           13.0000       13.0000             0.00%

Cover cuts applied:  4
Implied bound cuts applied:  46
Flow cuts applied:  5
Mixed integer rounding cuts applied:  16
Zero-half cuts applied:  35
Lift and project cuts applied:  4
Gomory fractional cuts applied:  10

Root node processing (before b&c):
  Real time             =    0.64 sec. (93.95 ticks)
Parallel b&c, 24 threads:
  Real time             =    1.20 sec. (39.61 ticks)
  Sync time (average)   =    1.08 sec.
  Wait time (average)   =    0.00 sec.
                          ------------
Total (root+branch&cut) =    1.83 sec. (133.56 ticks)

Solution status = Optimal
Solution LB = 13
Solution UB = 13
Runtime = 1.83735 seconds
	Command being timed: "/home/min/git_repos/CS598MEBProject/CNT-ILP/build/cnt -s 2 ./output/k8_n15/simC_c1_k8_n15_u3_s1_del02.input-right.cnp"
	User time (seconds): 30.95
	System time (seconds): 0.16
	Percent of CPU this job got: 1673%
	Elapsed (wall clock) time (h:mm:ss or m:ss): 0:01.86
	Average shared text size (kbytes): 0
	Average unshared data size (kbytes): 0
	Average stack size (kbytes): 0
	Average total size (kbytes): 0
	Maximum resident set size (kbytes): 100472
	Average resident set size (kbytes): 0
	Major (requiring I/O) page faults: 0
	Minor (reclaiming a frame) page faults: 29177
	Voluntary context switches: 7987
	Involuntary context switches: 4160
	Swaps: 0
	File system inputs: 0
	File system outputs: 16
	Socket messages sent: 0
	Socket messages received: 0
	Signals delivered: 0
	Page size (bytes): 4096
	Exit status: 0
